Data path: /scratch/opt/lxu/CFLG/benchmarks/random_B
Instance: r_40_0.2_148.txt
Result path: /scratch/opt/lxu/CFLG/results/random_B
Solver: Gurobi
Time limit: 7200
Formulation: LEFPAV
Cover: Large
julia --project=. src/main.jl /scratch/opt/lxu/CFLG/benchmarks/random_B r_40_0.2_148.txt /scratch/opt/lxu/CFLG/results/random_B Gurobi 7200 LEFPAV Large
The latest version of Julia in the `release` channel is 1.11.6+0.x64.linux.gnu. You currently have `1.11.4+0.x64.linux.gnu` installed. Run:

  juliaup update

in your terminal shell to install Julia 1.11.6+0.x64.linux.gnu and update the `release` channel to that version.
/scratch/opt/lxu/CFLG/benchmarks/random_B Gurobi 7200.0 /scratch/opt/lxu/CFLG/results/random_B r_40_0.2_148.txt LEFPAV Large
/scratch/opt/lxu/CFLG/benchmarks/random_B/r_40_0.2_148.txt

 read graph
data loaded

problem_graph/original graph: node: 40/40 edge: 148/148 dlt: 1.2270634437055061 break_avg_len: 0.6135317218527531 break_max_len: 0.9866416686465209Vbar/V, Ebar/E(40, 40, 148, 148)
Set parameter TokenServer to value "solice01.zib.de"
Set parameter Threads to value 1
Set parameter OutputFlag to value 1
Gurobi Optimizer version 12.0.1 build v12.0.1rc0 (linux64 - "Debian GNU/Linux 12 (bookworm)")

CPU model: Intel(R) Xeon(R) Gold 5122 CPU @ 3.60GHz, instruction set [SSE2|AVX|AVX2|AVX512]
Thread count: 8 physical cores, 16 logical processors, using up to 1 threads

Non-default parameters:
Threads  1

Optimize a model with 188 rows, 444 columns and 740 nonzeros
Model fingerprint: 0xe561439f
Coefficient statistics:
  Matrix range     [1e+00, 1e+00]
  Objective range  [1e+00, 1e+00]
  Bounds range     [1e+00, 1e+00]
  RHS range        [1e+00, 1e+00]
Presolve time: 0.00s
Presolved: 188 rows, 444 columns, 740 nonzeros

Iteration    Objective       Primal Inf.    Dual Inf.      Time
       0    1.4800000e+02   1.860000e+02   0.000000e+00      0s
     140    4.0000000e+01   0.000000e+00   0.000000e+00      0s

Solved in 140 iterations and 0.00 seconds (0.00 work units)
Optimal objective  4.000000000e+01

User-callback calls 184, time in user-callback 0.00 sec
elapsed CPU time: 1.000872 seconds
Set parameter TokenServer to value "solice01.zib.de"
Set parameter Threads to value 1
Set parameter OutputFlag to value 1
Set parameter MIPGap to value 0.0001
Set parameter TimeLimit to value 7198.999128

 more cuts: false 1.2270634437055061 false
is_attach:trueformulation:LEFPAV0 148 40
Set parameter PreCrush to value 1

 model loaded

Gurobi Optimizer version 12.0.1 build v12.0.1rc0 (linux64 - "Debian GNU/Linux 12 (bookworm)")

CPU model: Intel(R) Xeon(R) Gold 5122 CPU @ 3.60GHz, instruction set [SSE2|AVX|AVX2|AVX512]
Thread count: 8 physical cores, 16 logical processors, using up to 1 threads

Non-default parameters:
TimeLimit  7198.999128
PreCrush  1
Threads  1

Optimize a model with 19938 rows, 9439 columns and 59170 nonzeros
Model fingerprint: 0x0e393040
Variable types: 336 continuous, 9103 integer (9103 binary)
Coefficient statistics:
  Matrix range     [1e-06, 2e+00]
  Objective range  [1e+00, 1e+00]
  Bounds range     [3e-01, 1e+00]
  RHS range        [3e-01, 1e+01]
Found heuristic solution: objective 20.0000000
Presolve removed 3738 rows and 185 columns
Presolve time: 0.17s
Presolved: 16200 rows, 9254 columns, 55070 nonzeros
Variable types: 188 continuous, 9066 integer (9066 binary)

Root relaxation: objective 1.000000e+00, 6062 iterations, 0.43 seconds (0.75 work units)

    Nodes    |    Current Node    |     Objective Bounds      |     Work
 Expl Unexpl |  Obj  Depth IntInf | Incumbent    BestBd   Gap | It/Node Time

     0     0    1.00000    0   91   20.00000    1.00000  95.0%     -    1s
H    0     0                       9.0000000    1.00000  88.9%     -    1s
H    0     0                       8.0000000    1.00000  87.5%     -    1s
H    0     0                       7.0000000    1.00000  85.7%     -    1s
H    0     0                       6.0000000    1.00000  83.3%     -    2s
H    0     0                       5.0000000    1.00000  80.0%     -    2s
elapsed CPU time: 1.38440652545375e13 seconds
     0     0    1.06589    0  455    5.00000    1.06589  78.7%     -    4s
elapsed CPU time: 0.117823 seconds
     0     0    1.06736    0  447    5.00000    1.06736  78.7%     -    5s
elapsed CPU time: 0.103608 seconds
     0     0    1.33333    0  461    5.00000    1.33333  73.3%     -    5s
elapsed CPU time: 0.102384 seconds
     0     0    1.33333    0  537    5.00000    1.33333  73.3%     -    6s
elapsed CPU time: 0.107775 seconds
     0     0    1.33333    0  625    5.00000    1.33333  73.3%     -    7s
H    0     0                       4.0000000    1.33333  66.7%     -    7s
elapsed CPU time: 0.107659 seconds
     0     0    1.33333    0  703    4.00000    1.33333  66.7%     -    8s
elapsed CPU time: 0.103344 seconds
     0     0    1.33333    0  781    4.00000    1.33333  66.7%     -   10s
elapsed CPU time: 0.10749 seconds
     0     0    1.33333    0  156    4.00000    1.33333  66.7%     -   13s
elapsed CPU time: 0.105716 seconds
elapsed CPU time: 0.113174 seconds
     0     2    1.50000    0  158    4.00000    1.50000  62.5%     -   19s
     2     4    1.50000    2  318    4.00000    1.50000  62.5%  6591   20s
    70    72    1.50000   68  451    4.00000    1.50000  62.5%   675   25s
   213   193    2.00000   55  234    4.00000    1.50000  62.5%   431   30s
   429   383    2.01287   35  215    4.00000    1.50000  62.5%   324   35s
   557   484    2.28017  115  156    4.00000    1.50000  62.5%   302   56s
   559   485    1.50000   21  647    4.00000    1.50000  62.5%   301   63s
   560   486    2.42054   62  677    4.00000    1.50000  62.5%   301   67s
   565   489    3.00000   78  380    4.00000    1.50000  62.5%   298   81s
   567   491    2.00000   64  692    4.00000    1.50000  62.5%   297   89s
   568   491    2.89761   82  738    4.00000    1.50000  62.5%   296   91s
   569   492    2.28017  115  334    4.00000    1.50000  62.5%   296   99s
   570   493    1.50000   72  484    4.00000    1.50000  62.5%   295  101s
   571   493    2.53282   65  264    4.00000    1.50000  62.5%   295  110s
   573   495    2.00000   41  233    4.00000    1.50000  62.5%   294  119s
   574   495    1.50000   35  604    4.00000    1.50000  62.5%   293  121s
   575   496    2.02038   79  410    4.00000    1.50000  62.5%   293  127s
   577   497    1.50000   15  324    4.00000    1.50000  62.5%   292  135s
   579   499    2.00000   21  324    4.00000    1.50000  62.5%   291  140s
   580   501    1.50000   11  300    4.00000    1.50000  62.5%   821  148s
   585   505    2.00000   13  302    4.00000    1.50000  62.5%   833  150s
   598   513    1.50000   20  276    4.00000    1.50000  62.5%   857  155s
   605   518    2.00000   23  417    4.00000    1.50000  62.5%   874  163s
   609   521    2.00000   25  302    4.00000    1.50000  62.5%   880  165s
   621   529    2.00000   31  361    4.00000    1.50000  62.5%   911  170s
   633   537    2.00000   37  241    4.00000    1.50000  62.5%   935  175s
   646   545    1.77877   44  422    4.00000    1.50000  62.5%   960  180s
   660   555    1.50000   51  474    4.00000    1.50000  62.5%   971  185s
   676   565    1.54999   59  506    4.00000    1.54999  61.3%   987  190s
   697   579    2.22972   69  335    4.00000    1.62399  59.4%   995  195s
   716   592    1.73487   79  389    4.00000    1.73487  56.6%   992  200s
   741   607    2.60848   91  279    4.00000    1.77923  55.5%   985  205s
   784   623    3.00000  113  229    4.00000    1.77923  55.5%   963  210s
   816   629    2.09381   51  364    4.00000    1.82942  54.3%   948  215s
   852   649    2.44521   69  205    4.00000    1.82942  54.3%   932  220s
   905   635    3.00000  103  181    4.00000    1.82942  54.3%   900  225s
   928   643    2.06053   26  216    4.00000    1.86546  53.4%   901  230s
   953   653    3.00000   38  171    4.00000    1.86546  53.4%   899  235s
  1002   662    2.60093   39  318    4.00000    1.90442  52.4%   881  240s
  1030   676    3.00000   53  222    4.00000    1.90442  52.4%   879  245s
  1079   695    2.40099   78  194    4.00000    1.90442  52.4%   860  250s
  1112   696    2.55964   36  163    4.00000    1.90500  52.4%   855  255s
  1144   700    2.75000   56  109    4.00000    1.90500  52.4%   843  260s
  1231   672    2.60760   80  161    4.00000    1.98131  50.5%   796  265s
  1284   665    2.49375   65  265    4.00000    2.00000  50.0%   778  270s
  1348   658    2.49357   50  259    4.00000    2.00000  50.0%   760  275s
  1416   653    2.16841   54  447    4.00000    2.00000  50.0%   742  280s
  1465   658    3.00000   91  152    4.00000    2.00000  50.0%   731  285s
  1529   646    2.60000   22  126    4.00000    2.00000  50.0%   709  290s
  1570   645    2.06913   20  427    4.00000    2.00000  50.0%   697  295s
  1620   660    2.65320   53  162    4.00000    2.00000  50.0%   689  300s
  1669   654    2.10731   24  296    4.00000    2.00000  50.0%   680  305s
  1725   646    3.00000   62  202    4.00000    2.00000  50.0%   670  310s
  1795   642    2.00000   15  619    4.00000    2.00000  50.0%   659  316s
  1803   648    2.43487   23  336    4.00000    2.00000  50.0%   661  320s
  1854   670    2.25000   51  272    4.00000    2.00000  50.0%   651  325s
  1920   686    3.00000   50  176    4.00000    2.00000  50.0%   639  330s
  2004   674    3.00000   42  135    4.00000    2.00000  50.0%   626  335s
  2059   663    2.45246   44  253    4.00000    2.00000  50.0%   619  340s
  2118   674    2.73517   41  168    4.00000    2.00000  50.0%   609  345s
  2189   693    2.61230   68  183    4.00000    2.00000  50.0%   595  350s
  2233   711    2.14461   22  486    4.00000    2.00000  50.0%   587  366s
  2258   729    2.65829   33  169    4.00000    2.00000  50.0%   587  370s
  2298   760    3.00000   66  350    4.00000    2.00000  50.0%   584  375s
  2357   771    2.15528   20  382    4.00000    2.00000  50.0%   581  380s
  2425   817    3.00000   75  324    4.00000    2.00000  50.0%   574  385s
  2477   830    2.53776   18  228    4.00000    2.00000  50.0%   571  390s
  2491   838    3.00000   23  602    4.00000    2.00000  50.0%   576  395s
  2513   848    3.00000   31  210    4.00000    2.00000  50.0%   580  400s
  2562   847    3.00000   66  227    4.00000    2.00000  50.0%   578  405s
  2607   846    2.64588   12  320    4.00000    2.00000  50.0%   578  410s
  2647   858    2.03246   12  630    4.00000    2.00000  50.0%   576  415s
  2674   884    3.00000   39   55    4.00000    2.00000  50.0%   574  420s
  2758   909    2.00000   44  520    4.00000    2.00000  50.0%   566  425s
  2804   928    2.11766   14  575    4.00000    2.00000  50.0%   566  430s
  2846   941    2.36196   28  385    4.00000    2.00000  50.0%   563  435s
  2895   964    2.13760   26  550    4.00000    2.00000  50.0%   562  440s
  2939   971    3.00000   26  309    4.00000    2.00000  50.0%   564  445s
  2970   986    2.10575   41  372    4.00000    2.00000  50.0%   561  450s
  3034  1003    2.01376   39  512    4.00000    2.00000  50.0%   558  455s
  3070  1029    2.68496   57  254    4.00000    2.00000  50.0%   560  460s
  3113  1053    3.00000   81  153    4.00000    2.00000  50.0%   559  465s
  3197  1084    2.25324   30  273    4.00000    2.00000  50.0%   553  470s
  3273  1114    3.00000   31  274    4.00000    2.00000  50.0%   548  475s
  3339  1147    2.77327   39  118    4.00000    2.00000  50.0%   545  480s
  3406  1179    2.66233   65  294    4.00000    2.00000  50.0%   540  485s
  3488  1191    3.00000   35  108    4.00000    2.00000  50.0%   534  490s
  3560  1225    3.00000   48  215    4.00000    2.00000  50.0%   530  495s
  3631  1250    2.80460   69  280    4.00000    2.00000  50.0%   528  500s
  3720  1260    3.00000   81  129    4.00000    2.00000  50.0%   523  505s
  3772  1270     cutoff   53         4.00000    2.00000  50.0%   520  510s
  3819  1280     cutoff   50         4.00000    2.00233  49.9%   520  515s
  3871  1310    2.66024   37  342    4.00000    2.00308  49.9%   519  520s
  3941  1331    3.00000   48  169    4.00000    2.00706  49.8%   516  529s
  3958  1337    2.61055   41  325    4.00000    2.00761  49.8%   515  530s
  4067  1393    2.78439   47  261    4.00000    2.01491  49.6%   507  535s
  4137  1416     cutoff   69         4.00000    2.01827  49.5%   505  540s
  4232  1464    2.04606   22  477    4.00000    2.02191  49.5%   499  545s
  4309  1515    2.28000   22  313    4.00000    2.02354  49.4%   496  550s
  4328  1521    3.00000   36  291    4.00000    2.02356  49.4%   497  555s
  4377  1534    2.41498   73  484    4.00000    2.02697  49.3%   496  560s
  4471  1586     cutoff   68         4.00000    2.02736  49.3%   492  565s
  4576  1631    3.00000   48  161    4.00000    2.03708  49.1%   487  570s
  4664  1660    2.64932   13  216    4.00000    2.04191  49.0%   484  575s
  4727  1694    3.00000   49  146    4.00000    2.04384  48.9%   480  580s
  4842  1728    3.00000   48  196    4.00000    2.05018  48.7%   475  585s
  4887  1756    2.23187   42  518    4.00000    2.05050  48.7%   475  590s
  4924  1782    3.00000   70  143    4.00000    2.05050  48.7%   475  598s
  4946  1788    3.00000   84  297    4.00000    2.05050  48.7%   475  600s
  5038  1798    2.52581   14  201    4.00000    2.05898  48.5%   473  605s
  5085  1821    3.00000   40  225    4.00000    2.05980  48.5%   472  610s
  5101  1831    3.00000   55  206    4.00000    2.05980  48.5%   472  627s
  5141  1848    3.00000   29  286    4.00000    2.06251  48.4%   470  632s
  5178  1873    3.00000   65  189    4.00000    2.06251  48.4%   468  635s
  5235  1885    3.00000   34  236    4.00000    2.06399  48.4%   467  640s
  5324  1902    2.50000   23  382    4.00000    2.06622  48.3%   466  645s
  5384  1941    3.00000   79  238    4.00000    2.06622  48.3%   464  650s
  5441  1964    3.00000   28  219    4.00000    2.06696  48.3%   463  655s
  5520  2007    2.50304   21  332    4.00000    2.06923  48.3%   461  660s
  5572  2028    3.00000   52  151    4.00000    2.06963  48.3%   461  665s
  5701  2094     cutoff   40         4.00000    2.07116  48.2%   456  670s
  5783  2129    2.79137   77  223    4.00000    2.07692  48.1%   455  675s
  5896  2176    2.79909   47  260    4.00000    2.08243  47.9%   452  680s
  5977  2218    3.00000   60  151    4.00000    2.08670  47.8%   451  685s
  6030  2240    3.00000   47  152    4.00000    2.09117  47.7%   450  690s
  6097  2269    2.65152   28  206    4.00000    2.09268  47.7%   449  695s
  6194  2307    2.25000   46  300    4.00000    2.09607  47.6%   445  700s
  6299  2374    2.56620   99  292    4.00000    2.09985  47.5%   441  705s
  6413  2443    2.60333   16  164    4.00000    2.10085  47.5%   438  710s
  6530  2504    3.00000   42  118    4.00000    2.10155  47.5%   434  715s
  6618  2531     cutoff   29         4.00000    2.10460  47.4%   434  720s
  6743  2556    2.69981   18  268    4.00000    2.10838  47.3%   432  725s
  6788  2571    2.66676   28  233    4.00000    2.10949  47.3%   432  730s
  6884  2612    3.00000   70  236    4.00000    2.11032  47.2%   431  735s
H 6890     3                       2.9999992    2.11032  29.7%   431  737s

Cutting planes:
  User: 9
  Learned: 4
  Gomory: 2
  Cover: 103
  Implied bound: 47
  Clique: 30
  MIR: 60
  StrongCG: 45
  Flow cover: 15
  GUB cover: 27
  Zero half: 2
  RLT: 39
  Relax-and-lift: 21
  BQP: 1

Explored 6891 nodes (3031925 simplex iterations) in 737.97 seconds (1021.55 work units)
Thread count was 1 (of 16 available processors)

Solution count 10: 3 4 4 ... 20
No other solutions better than 3

Optimal solution found (tolerance 1.00e-04)
Best objective 2.999999150989e+00, best bound 2.999999150989e+00, gap 0.0000%

User-callback calls 151334, time in user-callback 2.35 sec

 sepatime1.3844065254538467e13 217952 10
2.9999991509891504
Stat(MathOptInterface.OPTIMAL, 2.9999991509891504, 2.9999991509891504, 0.0, 1.3844065254538467e13, 1.000872, 737.9704060554504, 6891, Main.CFLG.LEFPAV, "", #undef)
